! HF ${basis_set} Mulliken
%pal nprocs $n_cores end
%maxcore 2000
%scf
  maxiter 150
end

* xyzfile $charge $multiplicity input.xyz
